10J3M/DAT/10J3MULL-16.dat
10 3
42.9222 42.9222
33.264 33.264
15.4841 15.4841
29.079 29.079
40.8671 40.8671
0.0106 0.0106
34.1407 34.1407
5.0229 5.0229
5.5189 5.5189
44.9433 44.9433
83.7509