10J3M/SOL/10J3MULL-16.sol
solution status: optimal solution found
objective value:                              77.7243
x#1#1                                               1 	(obj:0)
x#2#3                               0.999997547973891 	(obj:0)
x#3#2                              0.0459664735794144 	(obj:0)
x#3#3                               0.954033526420586 	(obj:0)
x#4#1                                               1 	(obj:0)
x#5#1                                               1 	(obj:0)
x#6#1                                               1 	(obj:0)
x#7#2                                               1 	(obj:0)
x#8#2                                               1 	(obj:0)
x#9#1                              0.0875024422410005 	(obj:0)
x#9#2                                  0.912497557759 	(obj:0)
x#10#1                                              1 	(obj:0)
z                                             77.7243 	(obj:1)
